NAME 
ROWS
 N  OBJ
 L  R0      
 L  R1      
 E  R2      
 E  R3      
 E  R4      
 E  R5      
 E  R6      
 E  R7      
 E  R8      
 E  R9      
 E  R10     
 E  R11     
 E  R12     
 E  R13     
 E  R14     
 E  R15     
 E  R16     
COLUMNS
    MARKER    'MARKER'                 'INTORG'
    I0(9)     OBJ       -165
    I0(9)     R0        -10
    I0(9)     R1        11
    I0(9)     R2        8
    I0(9)     R3        10
    I0(9)     R4        18
    I0(9)     R5        8
    I0(9)     R7        5
    I0(9)     R9        2
    I0(9)     R16       1
    I1(10)    OBJ       32
    I1(10)    R0        6
    I1(10)    R1        92
    I1(10)    R2        11
    I1(10)    R3        10
    I1(10)    R5        9
    I1(10)    R7        19
    I1(10)    R8        16
    I1(10)    R9        2
    I1(10)    R10       7
    I1(10)    R16       1
    I2(9)     OBJ       7
    I2(9)     R0        -10
    I2(9)     R1        -112
    I2(9)     R2        13
    I2(9)     R3        18
    I2(9)     R4        8
    I2(9)     R6        1
    I2(9)     R7        18
    I2(9)     R8        14
    I2(9)     R16       1
    I3(8)     OBJ       -184
    I3(8)     R0        33
    I3(8)     R1        133
    I3(8)     R2        3
    I3(8)     R5        15
    I3(8)     R6        2
    I3(8)     R9        14
    I3(8)     R10       -1
    I3(8)     R16       1
    I4(9)     OBJ       -130
    I4(9)     R0        176
    I4(9)     R1        16
    I4(9)     R2        19
    I4(9)     R3        6
    I4(9)     R7        13
    I4(9)     R8        16
    I4(9)     R9        9
    I4(9)     R10       16
    I4(9)     R16       1
    I5(7)     OBJ       -141
    I5(7)     R0        -80
    I5(7)     R1        71
    I5(7)     R2        17
    I5(7)     R3        18
    I5(7)     R6        18
    I5(7)     R7        2
    I5(7)     R16       1
    I6(7)     OBJ       -128
    I6(7)     R0        196
    I6(7)     R1        -168
    I6(7)     R4        9
    I6(7)     R5        18
    I6(7)     R8        4
    I6(7)     R10       8
    I6(7)     R16       1
    I7(8)     OBJ       -143
    I7(8)     R0        79
    I7(8)     R1        69
    I7(8)     R2        2
    I7(8)     R3        5
    I7(8)     R5        10
    I7(8)     R6        2
    I7(8)     R7        2
    I7(8)     R16       1
    I8(9)     OBJ       111
    I8(9)     R0        -85
    I8(9)     R1        1
    I8(9)     R4        3
    I8(9)     R5        14
    I8(9)     R6        15
    I8(9)     R7        5
    I8(9)     R8        10
    I8(9)     R10       14
    I8(9)     R16       1
    MARKER    'MARKER'                 'INTEND'
    C9(9)     OBJ       8
    C9(9)     R0        -4
    C9(9)     R1        -2
    C9(9)     R2        17
    C9(9)     R3        2
    C9(9)     R5        14
    C9(9)     R7        12
    C9(9)     R10       10
    C9(9)     R14       15
    C9(9)     R15       8
    C10(12)   OBJ       3
    C10(12)   R0        5
    C10(12)   R1        -7
    C10(12)   R2        13
    C10(12)   R3        7
    C10(12)   R4        6
    C10(12)   R6        13
    C10(12)   R7        16
    C10(12)   R9        10
    C10(12)   R11       8
    C10(12)   R13       -1
    C10(12)   R14       17
    C10(12)   R15       -1
    C11(12)   OBJ       -6
    C11(12)   R0        -10
    C11(12)   R1        -9
    C11(12)   R2        18
    C11(12)   R4        11
    C11(12)   R5        4
    C11(12)   R8        15
    C11(12)   R9        15
    C11(12)   R11       1
    C11(12)   R12       13
    C11(12)   R13       2
    C11(12)   R14       9
    C11(12)   R15       -1
    C12(10)   OBJ       -1
    C12(10)   R0        1
    C12(10)   R2        10
    C12(10)   R4        13
    C12(10)   R7        16
    C12(10)   R8        13
    C12(10)   R9        2
    C12(10)   R10       13
    C12(10)   R11       8
    C12(10)   R12       1
    C12(10)   R14       8
    C13(11)   OBJ       4
    C13(11)   R0        8
    C13(11)   R1        -2
    C13(11)   R3        6
    C13(11)   R4        9
    C13(11)   R5        8
    C13(11)   R7        15
    C13(11)   R8        19
    C13(11)   R9        8
    C13(11)   R11       8
    C13(11)   R14       4
    C13(11)   R15       14
    C14(11)   OBJ       7
    C14(11)   R0        9
    C14(11)   R1        3
    C14(11)   R2        10
    C14(11)   R3        -1
    C14(11)   R4        4
    C14(11)   R5        15
    C14(11)   R9        -1
    C14(11)   R10       6
    C14(11)   R11       -1
    C14(11)   R14       17
    C14(11)   R15       19
    C15(1)    R2        1
    C16(1)    R3        1
    C17(1)    R4        1
    C18(1)    R5        1
    C19(1)    R6        1
    C20(1)    R7        1
    C21(1)    R8        1
    C22(1)    R9        1
    C23(1)    R10       1
    C24(1)    R11       1
    C25(1)    R12       1
    C26(1)    R13       1
    C27(1)    R14       1
    C28(1)    R15       1
    C29(1)    R16       1
RHS
    RHS1      R0        7.4777777777777771e+01
    RHS1      R1        188.5
    RHS1      R2        62
    RHS1      R3        92
    RHS1      R4        68
    RHS1      R5        97
    RHS1      R6        62
    RHS1      R7        96
    RHS1      R8        54
    RHS1      R9        69
    RHS1      R10       79
    RHS1      R11       63
    RHS1      R12       73
    RHS1      R13       63
    RHS1      R14       94
    RHS1      R15       63
    RHS1      R16       3
BOUNDS
 UP BND1      I0(9)     1
 UP BND1      I1(10)    1
 UP BND1      I2(9)     1
 UP BND1      I3(8)     1
 UP BND1      I4(9)     1
 UP BND1      I5(7)     1
 UP BND1      I6(7)     1
 UP BND1      I7(8)     1
 UP BND1      I8(9)     1
ENDATA
